solution status: optimal solution found
objective value:                                   23
x53                                                 1 	(obj:1)
x54                                                 1 	(obj:1)
x55                                                 1 	(obj:1)
x56                                                 1 	(obj:1)
x60                                                 1 	(obj:1)
x63                                                 1 	(obj:1)
x64                                                 1 	(obj:1)
x65                                                 1 	(obj:1)
x67                                                 1 	(obj:1)
x70                                                 1 	(obj:1)
x75                                                 1 	(obj:1)
x80                                                 1 	(obj:1)
x84                                                 1 	(obj:1)
x92                                                 1 	(obj:1)
x94                                                 1 	(obj:1)
x101                                                1 	(obj:1)
x104                                                1 	(obj:1)
x107                                                1 	(obj:1)
x117                                                1 	(obj:1)
x118                                                1 	(obj:1)
x119                                                1 	(obj:1)
x120                                                1 	(obj:1)
x121                                                1 	(obj:1)
thing.thing.chamber[0].thingy.p2_y                   12 	(obj:0)
thing.thing.chamber[0].thingy.p2_z                   19 	(obj:0)
thing.thing.chamber[1].thingy.r3c_y                   15 	(obj:0)
thing.thing.chamber[1].thingy.r3c_z                   15 	(obj:0)
thing.thing.chamber[2].thingy.v3_y                   15 	(obj:0)
thing.thing.chamber[2].thingy.v3_z                   18 	(obj:0)
thing.thing.chamber[1].thingy.v2_y                   16 	(obj:0)
thing.thing.chamber[1].thingy.v2_z                   14 	(obj:0)
thing.thing.chamber[2].thingy.v4_y                   17 	(obj:0)
thing.thing.chamber[2].thingy.v4_z                   14 	(obj:0)
thing.thing.chamber[0].thingy.r1c_y                   13 	(obj:0)
thing.thing.chamber[0].thingy.r1c_z                   15 	(obj:0)
thing.loop_exit_ctrl_hole_y                        12 	(obj:0)
thing.loop_exit_ctrl_hole_z                        15 	(obj:0)
thing.thing.chamber[0].thingy.v11_y                   15 	(obj:0)
thing.thing.chamber[0].thingy.v11_z                   20 	(obj:0)
thing.thing.chamber[1].thingy.r4c_y                   16 	(obj:0)
thing.thing.chamber[1].thingy.r4c_z                   17 	(obj:0)
thing.thing.chamber[1].thingy.v10_y                   16 	(obj:0)
thing.thing.chamber[1].thingy.v10_z                   19 	(obj:0)
thing.vertical_ctrl_hole_y                         12 	(obj:0)
thing.vertical_ctrl_hole_z                         14 	(obj:0)
thing.thing.chamber[1].thingy.r2c_y                   15 	(obj:0)
thing.thing.chamber[1].thingy.r2c_z                   14 	(obj:0)
thing.thing.chamber[0].thingy.p0_y                   13 	(obj:0)
thing.thing.chamber[0].thingy.p0_z                   18 	(obj:0)
thing.thing.chamber[2].thingy.v7_y                   19 	(obj:0)
thing.thing.chamber[2].thingy.v7_z                   17 	(obj:0)
thing.thing.chamber[1].thingy.v11_y                   19 	(obj:0)
thing.thing.chamber[1].thingy.v11_z                   18 	(obj:0)
thing.thing.chamber[2].thingy.v8_y                   18 	(obj:0)
thing.thing.chamber[2].thingy.v8_z                   20 	(obj:0)
thing.thing.chamber[2].thingy.v2_y                   16 	(obj:0)
thing.thing.chamber[2].thingy.v2_z                   16 	(obj:0)
thing.thing.chamber[2].thingy.v9_y                   20 	(obj:0)
thing.thing.chamber[2].thingy.v9_z                   19 	(obj:0)
thing.vertical_flush_hole_y                        13 	(obj:0)
thing.vertical_flush_hole_z                        14 	(obj:0)
thing.thing.chamber[1].thingy.v3_y                   16 	(obj:0)
thing.thing.chamber[1].thingy.v3_z                   18 	(obj:0)
thing.thing.chamber[2].thingy.r3c_y                   14 	(obj:0)
thing.thing.chamber[2].thingy.r3c_z                   14 	(obj:0)
thing.thing.chamber[2].thingy.v5_y                   17 	(obj:0)
thing.thing.chamber[2].thingy.v5_z                   17 	(obj:0)
thing.thing.chamber[2].thingy.v6_y                   17 	(obj:0)
thing.thing.chamber[2].thingy.v6_z                   16 	(obj:0)
